NAME : CMT03H
TYPE : MVRPB
DIMENSION : 101
VEHICLES : 4
CAPACITY : 200
EDGE_WEIGHT_TYPE : EXACT_2D
NODE_COORD_SECTION
1 35 35
2 41 49
3 35 17
4 55 45
5 55 20
6 15 30
7 25 30
8 20 50
9 10 43
10 55 60
11 30 60
12 20 65
13 50 35
14 30 25
15 15 10
16 30 5
17 10 20
18 5 30
19 20 40
20 15 60
21 45 65
22 45 20
23 45 10
24 55 5
25 65 35
26 65 20
27 45 30
28 35 40
29 41 37
30 64 42
31 40 60
32 31 52
33 35 69
34 53 52
35 65 55
36 63 65
37 2 60
38 20 20
39 5 5
40 60 12
41 40 25
42 42 7
43 24 12
44 23 3
45 11 14
46 6 38
47 2 48
48 8 56
49 13 52
50 6 68
51 47 47
52 49 58
53 27 43
54 37 31
55 57 29
56 63 23
57 53 12
58 32 12
59 36 26
60 21 24
61 17 34
62 12 24
63 24 58
64 27 69
65 15 77
66 62 77
67 49 73
68 67 5
69 56 39
70 37 47
71 37 56
72 57 68
73 47 16
74 44 17
75 46 13
76 49 11
77 49 42
78 53 43
79 61 52
80 57 48
81 56 37
82 55 54
83 15 47
84 14 37
85 11 31
86 16 22
87 4 18
88 28 18
89 26 52
90 26 35
91 31 67
92 15 19
93 22 22
94 18 24
95 26 27
96 25 24
97 22 27
98 25 21
99 19 21
100 20 26
101 18 18
PICKUP_AND_DELIVERY_SECTION
1 0 0 10000000 0 0 0
2 0 0 10000000 0 0 10
3 0 0 10000000 0 7 0
4 0 0 10000000 0 0 13
5 0 0 10000000 0 19 0
6 0 0 10000000 0 0 26
7 0 0 10000000 0 3 0
8 0 0 10000000 0 0 5
9 0 0 10000000 0 9 0
10 0 0 10000000 0 0 16
11 0 0 10000000 0 16 0
12 0 0 10000000 0 0 12
13 0 0 10000000 0 19 0
14 0 0 10000000 0 0 23
15 0 0 10000000 0 20 0
16 0 0 10000000 0 0 8
17 0 0 10000000 0 19 0
18 0 0 10000000 0 0 2
19 0 0 10000000 0 12 0
20 0 0 10000000 0 0 17
21 0 0 10000000 0 9 0
22 0 0 10000000 0 0 11
23 0 0 10000000 0 18 0
24 0 0 10000000 0 0 29
25 0 0 10000000 0 3 0
26 0 0 10000000 0 0 6
27 0 0 10000000 0 17 0
28 0 0 10000000 0 0 16
29 0 0 10000000 0 16 0
30 0 0 10000000 0 0 9
31 0 0 10000000 0 21 0
32 0 0 10000000 0 0 27
33 0 0 10000000 0 23 0
34 0 0 10000000 0 0 11
35 0 0 10000000 0 14 0
36 0 0 10000000 0 0 8
37 0 0 10000000 0 5 0
38 0 0 10000000 0 0 8
39 0 0 10000000 0 16 0
40 0 0 10000000 0 0 31
41 0 0 10000000 0 9 0
42 0 0 10000000 0 0 5
43 0 0 10000000 0 5 0
44 0 0 10000000 0 0 7
45 0 0 10000000 0 18 0
46 0 0 10000000 0 0 16
47 0 0 10000000 0 1 0
48 0 0 10000000 0 0 27
49 0 0 10000000 0 36 0
50 0 0 10000000 0 0 30
51 0 0 10000000 0 13 0
52 0 0 10000000 0 0 10
53 0 0 10000000 0 9 0
54 0 0 10000000 0 0 14
55 0 0 10000000 0 18 0
56 0 0 10000000 0 0 2
57 0 0 10000000 0 6 0
58 0 0 10000000 0 0 7
59 0 0 10000000 0 18 0
60 0 0 10000000 0 0 28
61 0 0 10000000 0 3 0
62 0 0 10000000 0 0 13
63 0 0 10000000 0 19 0
64 0 0 10000000 0 0 10
65 0 0 10000000 0 9 0
66 0 0 10000000 0 0 20
67 0 0 10000000 0 25 0
68 0 0 10000000 0 0 25
69 0 0 10000000 0 36 0
70 0 0 10000000 0 0 6
71 0 0 10000000 0 5 0
72 0 0 10000000 0 0 15
73 0 0 10000000 0 25 0
74 0 0 10000000 0 0 9
75 0 0 10000000 0 8 0
76 0 0 10000000 0 0 18
77 0 0 10000000 0 13 0
78 0 0 10000000 0 0 14
79 0 0 10000000 0 3 0
80 0 0 10000000 0 0 23
81 0 0 10000000 0 6 0
82 0 0 10000000 0 0 26
83 0 0 10000000 0 16 0
84 0 0 10000000 0 0 11
85 0 0 10000000 0 7 0
86 0 0 10000000 0 0 41
87 0 0 10000000 0 35 0
88 0 0 10000000 0 0 26
89 0 0 10000000 0 9 0
90 0 0 10000000 0 0 15
91 0 0 10000000 0 3 0
92 0 0 10000000 0 0 1
93 0 0 10000000 0 2 0
94 0 0 10000000 0 0 22
95 0 0 10000000 0 27 0
96 0 0 10000000 0 0 20
97 0 0 10000000 0 11 0
98 0 0 10000000 0 0 12
99 0 0 10000000 0 10 0
100 0 0 10000000 0 0 9
101 0 0 10000000 0 17 0
DEPOT_SECTION
1 
-1
EOF
